64
103
80
100
93
330
0
178
157
80
266
37
88
137
158
247
66
233
108
140
141
366
31
146
52
94
0
126
83
149
85
99
234
70
43
189
90
80
70
111
37
167
0
72
51
60
122
32
123
55
313
59
136
219
133
44
85
214
122
47
0
34
161
155
117
169
60
42
40
106
132
101
130
84
145
205
173
85
54
0
101
148
80
47
94
81
140
118
135
645
156
57
119
120
89
135
193
0
52
53
